10J3M/DAT/10J3MNTL-5.dat
10 3
30.1008 30.1008
22.9213 22.9213
27.3732 27.3732
30.6531 30.6531
10.6632 10.6632
28.2909 28.2909
27.158 27.158
24.0396 24.0396
26.085 26.085
26.859 26.859
63.536