10J3M/SOL/10J3MNTL-5.sol
solution status: optimal solution found
objective value:                               63.536
x#1#3                               0.577755408494126 	(obj:0)
x#2#1                                               1 	(obj:0)
x#3#2                               0.347748893077901 	(obj:0)
x#3#3                               0.652251106922099 	(obj:0)
x#5#1                                               1 	(obj:0)
x#6#3                                               1 	(obj:0)
x#7#2                                               1 	(obj:0)
x#8#1                                               1 	(obj:0)
x#9#1                               0.226639831320682 	(obj:0)
x#10#2                                              1 	(obj:0)
z                                              63.536 	(obj:1)
